seed= 2052018 ;
N= 10 ;
M= 2 ;
F= 2 ;
K= 4 ;
T= 36 ;

p=[ 2 2 2 2 2 10 10 10 10 10 ];
r=[ 0 1 0 1 0 1 0 1 1 3 ];
d=[ 4 1 3 3 6 8 1 0 2 0 ];
s=[ 1 1 1 1 1 1 1 1 1 1 ];
w=[ 4 4 5 5 3 5 1 2 5 3 ];
f=[ 1 1 1 1 1 2 2 2 2 2 ];

e1=[ 10 10 10 10 10 10 10 10 10 10 10 10 10 10 10 10 10 10 8 8 8 8 8 8 8 8 8 8 8 8 8 8 8 8 8 8 ];
e2=[ 10 10 10 10 10 10 10 10 10 10 10 10 9 9 9 9 9 9 8 8 8 8 8 8 8 8 8 8 8 8 9 9 9 9 9 9 ];